0 280 
1 284 
2 283 
3 286 
4 288 
5 286 
6 291 
7 291 
8 290 
9 283 
10 285 
11 283 
12 285 
13 280 
14 273 
15 269 
16 270 
17 271 
18 269 
19 266 
20 264 
21 262 
22 265 
23 259 
24 259 
25 254 
26 248 
27 255 
28 248 
29 247 
30 244 
31 240 
32 242 
33 246 
34 247 
35 241 
36 235 
37 230 
38 235 
39 231 
40 235 
41 229 
42 233 
43 228 
44 225 
45 221 
46 216 
47 218 
48 213 
49 207 
50 209 
51 207 
52 203 
53 204 
54 202 
55 199 
56 200 
57 200 
58 195 
59 189 
60 184 
61 183 
62 181 
63 181 
64 181 
65 178 
66 176 
67 173 
68 170 
69 170 
70 179 
71 175 
72 172 
73 170 
74 167 
75 167 
76 174 
77 173 
78 171 
79 172 
80 168 
81 163 
82 162 
83 163 
84 162 
85 160 
86 151 
87 153 
88 155 
89 148 
90 143 
91 144 
92 138 
93 137 
94 137 
95 136 
96 133 
97 130 
98 132 
99 131 
100 126 
101 126 
102 130 
103 127 
104 128 
105 121 
106 122 
107 125 
108 122 
109 123 
110 120 
111 114 
112 110 
113 108 
114 107 
115 106 
116 102 
117 100 
118 100 
119 101 
120 95 
121 91 
122 95 
123 94 
124 89 
125 89 
126 87 
127 87 
128 89 
129 85 
130 87 
131 84 
132 82 
133 77 
134 79 
135 76 
136 76 
137 78 
138 74 
139 70 
140 70 
141 69 
142 70 
143 67 
144 63 
145 61 
146 59 
147 56 
148 53 
149 51 
150 52 
151 52 
152 45 
153 46 
154 42 
155 43 
156 40 
157 34 
158 40 
159 35 
160 34 
161 30 
162 31 
163 32 
164 28 
165 26 
166 23 
167 23 
168 22 
169 21 
170 21 
171 18 
172 19 
173 18 
174 17 
175 15 
176 15 
177 15 
178 13 
179 10 
180 7 
181 7 
182 5 
183 4 
184 3 
185 3 
186 3 
187 4 
188 5 
189 5 
190 5 
191 4 
192 4 
193 2 
194 1 
195 1 
196 0 
197 0 

